6 56 38 66 26 25 70 84 22 30 12 93 33 41 75 46 49 68 54 52 74 72 2 50 16 3 17 90 10 58 27 86 34 64 62 83 92 7 21 37 88 20 78 81 94 97 60 23 11 32 39 28 19 9 65 36 5 44 69 96 48 76 71 40 24 8 63 59 79 51 4 89 31 0 98 67 73 82 35 80 95 29 1 45 15 85 18 57 91 43 99 77 87 47 55 53 14 42 61 13